NAME : portgen-31-5
COMMENT : portgen N=31, seed=5
TYPE : TSP
DIMENSION : 31
EDGE_WEIGHT_TYPE : EUC_2D
NODE_COORD_SECTION
1 310938 549569
2 934232 356709
3 379044 972178
4 460173 909711
5 770867 699563
6 937861 47743
7 681396 360355
8 528493 883040
9 825609 46141
10 197751 546743
11 144878 40457
12 59610 725881
13 721679 790281
14 727299 462006
15 731163 716345
16 237932 130728
17 556534 207052
18 922169 901286
19 69674 76776
20 867825 924935
21 517025 884226
22 472786 68248
23 564503 602377
24 981030 114850
25 779861 960449
26 815667 703367
27 846667 851
28 468967 180209
29 993034 727180
30 434539 477758
31 902503 383397
